\ SCIP STATISTICS
\   Problem name     : SetCover-100-100
\   Variables        : 100 (100 binary, 0 integer, 0 implicit integer, 0 continuous)
\   Constraints      : 100
Minimize
 Obj: +23 x0 +51 x1 +30 x2 +18 x3 +74 x4 +74 x5 +68 x6 +21 x7 +15 x8 +97 x9 +31 x10 +4 x11 +87 x12 +68 x13
      +85 x14 +82 x15 +60 x16 +16 x17 +31 x18 +83 x19 +62 x20 +21 x21 +27 x22 +23 x23 +3 x24 +88 x25 +40 x26
      +2 x27 +85 x28 +4 x29 +11 x30 +57 x31 +54 x32 +3 x33 +15 x34 +23 x35 +40 x36 +94 x37 +75 x38 +41 x39
      +97 x40 +91 x41 +46 x42 +87 x43 +15 x44 +20 x45 +25 x46 +96 x47 +34 x48 +22 x49 +6 x50 +2 x51 +84 x52
      +20 x53 +81 x54 +9 x55 +13 x56 +88 x57 +15 x58 +97 x59 +42 x60 +42 x61 +52 x62 +26 x63 +62 x64 +16 x65
      +86 x66 +94 x67 +25 x68 +32 x69 +84 x70 +74 x71 +5 x72 +54 x73 +16 x74 +86 x75 +40 x76 +86 x77 +90 x78
      +67 x79 +36 x80 +28 x81 +94 x82 +82 x83 +60 x84 +5 x85 +28 x86 +90 x87 +87 x88 +53 x89 +28 x90 +13 x91
      +51 x92 +70 x93 +88 x94 +26 x95 +10 x96 +22 x97 +87 x98 +31 x99
Subject to
 c0: +1 x3 +1 x5 +1 x7 +1 x12 +1 x22 +1 x23 +1 x25 +1 x27 +1 x32 +1 x37 +1 x41 +1 x42 +1 x43 +1 x44 +1 x48
  +1 x51 +1 x58 +1 x63 +1 x64 +1 x66 +1 x79 +1 x80 +1 x82 +1 x86 +1 x88 +1 x90 +1 x91 +1 x93 +1 x94 >= +1
 c1: +1 x4 +1 x8 +1 x10 +1 x11 +1 x14 +1 x18 +1 x23 +1 x24 +1 x28 +1 x31 +1 x40 +1 x52 +1 x57 +1 x63 +1 x65
  +1 x70 +1 x79 +1 x80 +1 x85 +1 x88 +1 x90 +1 x96 +1 x99 >= +1
 c2: +1 x3 +1 x5 +1 x6 +1 x15 +1 x23 +1 x39 +1 x40 +1 x48 +1 x49 +1 x51 +1 x55 +1 x58 +1 x66 +1 x73 +1 x90
  +1 x91 +1 x92 +1 x97 +1 x98 >= +1
 c3: +1 x2 +1 x8 +1 x14 +1 x15 +1 x24 +1 x34 +1 x36 +1 x39 +1 x40 +1 x44 +1 x47 +1 x49 +1 x50 +1 x51 +1 x53
  +1 x58 +1 x61 +1 x63 +1 x64 +1 x68 +1 x69 +1 x74 +1 x84 +1 x86 +1 x90 +1 x91 +1 x92 +1 x95 +1 x99 >= +1
 c4: +1 x0 +1 x12 +1 x15 +1 x36 +1 x37 +1 x38 +1 x45 +1 x46 +1 x47 +1 x51 +1 x53 +1 x54 +1 x61 +1 x77
  +1 x83 +1 x88 +1 x97 +1 x98 >= +1
 c5: +1 x3 +1 x12 +1 x16 +1 x17 +1 x18 +1 x25 +1 x27 +1 x28 +1 x30 +1 x31 +1 x33 +1 x37 +1 x41 +1 x52
  +1 x69 +1 x72 +1 x75 +1 x86 >= +1
 c6: +1 x4 +1 x16 +1 x20 +1 x31 +1 x34 +1 x38 +1 x42 +1 x43 +1 x46 +1 x48 +1 x50 +1 x58 +1 x60 +1 x62
  +1 x65 +1 x68 +1 x69 +1 x75 +1 x84 +1 x88 +1 x95 >= +1
 c7: +1 x4 +1 x23 +1 x25 +1 x32 +1 x35 +1 x46 +1 x48 +1 x52 +1 x55 +1 x58 +1 x63 +1 x75 +1 x81 +1 x83
  +1 x97 >= +1
 c8: +1 x3 +1 x11 +1 x18 +1 x23 +1 x24 +1 x27 +1 x32 +1 x33 +1 x41 +1 x43 +1 x44 +1 x45 +1 x46 +1 x51
  +1 x65 +1 x69 +1 x71 >= +1
 c9: +1 x1 +1 x7 +1 x9 +1 x10 +1 x16 +1 x29 +1 x34 +1 x37 +1 x38 +1 x42 +1 x48 +1 x54 +1 x58 +1 x60 +1 x66
  +1 x68 +1 x75 +1 x92 +1 x97 >= +1
 c10: +1 x2 +1 x7 +1 x9 +1 x26 +1 x37 +1 x48 +1 x49 +1 x61 +1 x62 +1 x77 +1 x78 +1 x79 +1 x83 >= +1
 c11: +1 x1 +1 x9 +1 x10 +1 x16 +1 x22 +1 x25 +1 x29 +1 x33 +1 x42 +1 x45 +1 x73 +1 x74 +1 x75 +1 x91
  +1 x94 >= +1
 c12: +1 x2 +1 x15 +1 x16 +1 x17 +1 x25 +1 x27 +1 x28 +1 x29 +1 x31 +1 x34 +1 x36 +1 x37 +1 x40 +1 x44
  +1 x46 +1 x54 +1 x55 +1 x59 +1 x66 +1 x76 +1 x79 +1 x87 +1 x88 +1 x92 +1 x96 +1 x99 >= +1
 c13: +1 x4 +1 x6 +1 x7 +1 x13 +1 x15 +1 x22 +1 x32 +1 x36 +1 x37 +1 x42 +1 x45 +1 x53 +1 x60 +1 x63 +1 x66
  +1 x76 +1 x81 +1 x88 +1 x94 +1 x96 +1 x99 >= +1
 c14: +1 x3 +1 x8 +1 x12 +1 x16 +1 x20 +1 x24 +1 x34 +1 x49 +1 x54 +1 x55 +1 x56 +1 x58 +1 x62 +1 x66
  +1 x68 +1 x78 +1 x79 +1 x81 +1 x85 +1 x88 +1 x90 +1 x97 >= +1
 c15: +1 x2 +1 x6 +1 x9 +1 x21 +1 x24 +1 x26 +1 x30 +1 x32 +1 x34 +1 x36 +1 x42 +1 x53 +1 x54 +1 x59 +1 x61
  +1 x62 +1 x65 +1 x67 +1 x68 +1 x77 +1 x81 +1 x82 +1 x83 +1 x85 +1 x96 >= +1
 c16: +1 x3 +1 x9 +1 x11 +1 x12 +1 x22 +1 x26 +1 x31 +1 x33 +1 x37 +1 x39 +1 x40 +1 x44 +1 x45 +1 x53
  +1 x54 +1 x58 +1 x77 +1 x79 +1 x85 +1 x87 +1 x89 +1 x95 +1 x96 >= +1
 c17: +1 x4 +1 x12 +1 x18 +1 x25 +1 x30 +1 x31 +1 x45 +1 x72 +1 x73 +1 x78 +1 x92 +1 x93 +1 x94 +1 x96
  +1 x98 >= +1
 c18: +1 x3 +1 x7 +1 x8 +1 x10 +1 x17 +1 x31 +1 x32 +1 x33 +1 x34 +1 x38 +1 x41 +1 x48 +1 x55 +1 x59 +1 x60
  +1 x62 +1 x64 +1 x67 +1 x68 +1 x69 +1 x83 +1 x99 >= +1
 c19: +1 x0 +1 x9 +1 x14 +1 x15 +1 x26 +1 x31 +1 x32 +1 x35 +1 x37 +1 x40 +1 x53 +1 x58 +1 x68 +1 x70
  +1 x73 +1 x75 +1 x90 +1 x97 >= +1
 c20: +1 x2 +1 x12 +1 x14 +1 x32 +1 x36 +1 x50 +1 x57 +1 x62 +1 x69 +1 x70 +1 x80 +1 x81 +1 x83 +1 x87
  +1 x94 >= +1
 c21: +1 x4 +1 x9 +1 x18 +1 x20 +1 x27 +1 x39 +1 x46 +1 x64 +1 x65 +1 x69 +1 x75 +1 x79 +1 x83 +1 x86
  +1 x88 +1 x90 >= +1
 c22: +1 x3 +1 x11 +1 x21 +1 x24 +1 x26 +1 x29 +1 x36 +1 x40 +1 x45 +1 x60 +1 x66 +1 x67 +1 x78 +1 x79
  +1 x87 +1 x91 +1 x93 +1 x96 >= +1
 c23: +1 x2 +1 x6 +1 x21 +1 x22 +1 x24 +1 x38 +1 x39 +1 x47 +1 x49 +1 x50 +1 x51 +1 x60 +1 x70 +1 x76
  +1 x83 +1 x90 +1 x91 +1 x93 +1 x95 >= +1
 c24: +1 x4 +1 x5 +1 x7 +1 x9 +1 x11 +1 x16 +1 x18 +1 x22 +1 x24 +1 x27 +1 x30 +1 x49 +1 x53 +1 x62 +1 x64
  +1 x68 +1 x69 +1 x70 +1 x72 +1 x78 +1 x84 +1 x87 +1 x92 +1 x94 +1 x99 >= +1
 c25: +1 x4 +1 x6 +1 x11 +1 x13 +1 x19 +1 x20 +1 x24 +1 x28 +1 x29 +1 x50 +1 x51 +1 x52 +1 x57 +1 x58
  +1 x59 +1 x60 +1 x62 +1 x65 +1 x72 +1 x89 +1 x93 +1 x97 >= +1
 c26: +1 x0 +1 x14 +1 x23 +1 x41 +1 x42 +1 x46 +1 x64 +1 x71 +1 x75 +1 x78 +1 x79 +1 x86 +1 x89 +1 x90
  +1 x93 +1 x94 +1 x96 >= +1
 c27: +1 x0 +1 x5 +1 x8 +1 x9 +1 x26 +1 x27 +1 x34 +1 x39 +1 x40 +1 x41 +1 x45 +1 x52 +1 x57 +1 x61 +1 x72
  +1 x73 +1 x76 +1 x78 +1 x80 +1 x81 +1 x84 +1 x89 +1 x93 +1 x97 >= +1
 c28: +1 x1 +1 x6 +1 x15 +1 x18 +1 x19 +1 x25 +1 x32 +1 x37 +1 x38 +1 x42 +1 x53 +1 x55 +1 x57 +1 x60
  +1 x62 +1 x75 +1 x83 +1 x84 +1 x85 +1 x98 >= +1
 c29: +1 x0 +1 x11 +1 x14 +1 x19 +1 x24 +1 x34 +1 x38 +1 x40 +1 x52 +1 x59 +1 x72 +1 x76 +1 x79 +1 x81
  +1 x84 +1 x86 +1 x87 +1 x92 +1 x96 +1 x99 >= +1
 c30: +1 x2 +1 x10 +1 x14 +1 x17 +1 x21 +1 x23 +1 x26 +1 x27 +1 x32 +1 x33 +1 x37 +1 x44 +1 x47 +1 x51
  +1 x53 +1 x55 +1 x60 +1 x64 +1 x67 +1 x68 +1 x70 +1 x83 +1 x88 +1 x94 >= +1
 c31: +1 x0 +1 x6 +1 x7 +1 x13 +1 x19 +1 x21 +1 x27 +1 x29 +1 x34 +1 x48 +1 x49 +1 x63 +1 x74 +1 x75 +1 x89
  +1 x99 >= +1
 c32: +1 x3 +1 x5 +1 x7 +1 x8 +1 x14 +1 x16 +1 x18 +1 x20 +1 x29 +1 x30 +1 x33 +1 x42 +1 x43 +1 x44 +1 x45
  +1 x60 +1 x65 +1 x73 +1 x79 +1 x80 +1 x81 +1 x83 +1 x87 +1 x89 +1 x93 +1 x96 +1 x97 +1 x99 >= +1
 c33: +1 x2 +1 x6 +1 x26 +1 x28 +1 x47 +1 x48 +1 x58 +1 x78 +1 x80 +1 x81 +1 x82 +1 x92 +1 x96 >= +1
 c34: +1 x1 +1 x13 +1 x15 +1 x16 +1 x21 +1 x23 +1 x24 +1 x25 +1 x26 +1 x35 +1 x37 +1 x45 +1 x47 +1 x52
  +1 x54 +1 x62 +1 x63 +1 x64 +1 x74 +1 x77 +1 x82 +1 x90 +1 x92 +1 x94 +1 x96 +1 x98 >= +1
 c35: +1 x0 +1 x12 +1 x21 +1 x27 +1 x35 +1 x37 +1 x45 +1 x46 +1 x50 +1 x61 +1 x72 +1 x75 +1 x76 +1 x77
  +1 x83 +1 x90 +1 x93 +1 x96 >= +1
 c36: +1 x1 +1 x21 +1 x25 +1 x38 +1 x48 +1 x53 +1 x62 +1 x66 +1 x69 +1 x75 +1 x78 +1 x79 +1 x86 +1 x90
  +1 x96 >= +1
 c37: +1 x0 +1 x11 +1 x13 +1 x15 +1 x24 +1 x25 +1 x28 +1 x30 +1 x32 +1 x35 +1 x40 +1 x42 +1 x46 +1 x49
  +1 x52 +1 x63 +1 x64 +1 x73 +1 x75 +1 x79 +1 x82 +1 x85 +1 x88 +1 x89 +1 x92 +1 x94 +1 x96 >= +1
 c38: +1 x0 +1 x10 +1 x15 +1 x20 +1 x21 +1 x25 +1 x26 +1 x33 +1 x35 +1 x49 +1 x50 +1 x52 +1 x57 +1 x63
  +1 x74 +1 x87 +1 x97 +1 x99 >= +1
 c39: +1 x0 +1 x6 +1 x7 +1 x15 +1 x16 +1 x21 +1 x36 +1 x37 +1 x38 +1 x46 +1 x47 +1 x48 +1 x59 +1 x60 +1 x70
  +1 x72 +1 x74 +1 x85 +1 x86 +1 x87 +1 x89 >= +1
 c40: +1 x0 +1 x10 +1 x12 +1 x14 +1 x19 +1 x25 +1 x26 +1 x27 +1 x29 +1 x32 +1 x36 +1 x42 +1 x49 +1 x52
  +1 x53 +1 x57 +1 x59 +1 x61 +1 x67 +1 x74 +1 x75 +1 x87 +1 x95 +1 x97 >= +1
 c41: +1 x1 +1 x19 +1 x26 +1 x31 +1 x32 +1 x40 +1 x43 +1 x46 +1 x64 +1 x70 +1 x72 +1 x73 +1 x78 +1 x80
  +1 x81 +1 x84 +1 x86 +1 x98 >= +1
 c42: +1 x0 +1 x8 +1 x21 +1 x22 +1 x29 +1 x30 +1 x34 +1 x37 +1 x39 +1 x47 +1 x55 +1 x58 +1 x63 +1 x67
  +1 x70 +1 x77 +1 x87 +1 x88 +1 x91 +1 x99 >= +1
 c43: +1 x3 +1 x6 +1 x17 +1 x30 +1 x31 +1 x32 +1 x48 +1 x49 +1 x55 +1 x57 +1 x59 +1 x61 +1 x62 +1 x71
  +1 x73 +1 x75 +1 x76 +1 x92 +1 x93 >= +1
 c44: +1 x2 +1 x16 +1 x24 +1 x29 +1 x32 +1 x37 +1 x40 +1 x43 +1 x46 +1 x48 +1 x53 +1 x74 +1 x86 +1 x89
  +1 x94 >= +1
 c45: +1 x3 +1 x4 +1 x5 +1 x8 +1 x9 +1 x44 +1 x45 +1 x48 +1 x51 +1 x54 +1 x55 +1 x63 +1 x64 +1 x73 +1 x74
  +1 x76 +1 x77 +1 x79 +1 x85 +1 x93 +1 x96 +1 x98 >= +1
 c46: +1 x4 +1 x11 +1 x19 +1 x20 +1 x42 +1 x45 +1 x46 +1 x53 +1 x60 +1 x65 +1 x67 +1 x69 +1 x70 +1 x84
  +1 x85 +1 x91 +1 x92 +1 x94 +1 x96 >= +1
 c47: +1 x3 +1 x8 +1 x10 +1 x15 +1 x16 +1 x19 +1 x20 +1 x21 +1 x26 +1 x27 +1 x35 +1 x36 +1 x39 +1 x40
  +1 x46 +1 x64 +1 x69 +1 x70 +1 x71 +1 x72 +1 x73 +1 x81 +1 x82 +1 x99 >= +1
 c48: +1 x4 +1 x8 +1 x10 +1 x11 +1 x20 +1 x22 +1 x24 +1 x29 +1 x34 +1 x36 +1 x37 +1 x42 +1 x47 +1 x56
  +1 x60 +1 x75 +1 x90 +1 x94 +1 x95 +1 x97 +1 x98 >= +1
 c49: +1 x1 +1 x13 +1 x17 +1 x18 +1 x20 +1 x31 +1 x36 +1 x43 +1 x50 +1 x52 +1 x56 +1 x59 +1 x68 +1 x73
  +1 x74 +1 x81 +1 x86 +1 x90 +1 x92 +1 x98 >= +1
 c50: +1 x2 +1 x16 +1 x25 +1 x27 +1 x33 +1 x34 +1 x35 +1 x39 +1 x42 +1 x43 +1 x52 +1 x60 +1 x61 +1 x69
  +1 x81 +1 x93 >= +1
 c51: +1 x1 +1 x6 +1 x17 +1 x25 +1 x26 +1 x28 +1 x36 +1 x47 +1 x48 +1 x49 +1 x51 +1 x53 +1 x56 +1 x58
  +1 x68 +1 x70 +1 x78 +1 x80 +1 x83 +1 x88 +1 x94 +1 x97 >= +1
 c52: +1 x1 +1 x6 +1 x10 +1 x13 +1 x19 +1 x25 +1 x28 +1 x29 +1 x33 +1 x42 +1 x49 +1 x50 +1 x70 +1 x83
  +1 x84 +1 x88 +1 x95 +1 x97 +1 x98 >= +1
 c53: +1 x3 +1 x19 +1 x23 +1 x24 +1 x27 +1 x29 +1 x31 +1 x32 +1 x45 +1 x47 +1 x48 +1 x49 +1 x58 +1 x64
  +1 x73 +1 x74 +1 x79 >= +1
 c54: +1 x4 +1 x6 +1 x7 +1 x9 +1 x13 +1 x25 +1 x30 +1 x35 +1 x36 +1 x41 +1 x45 +1 x47 +1 x49 +1 x64 +1 x67
  +1 x68 +1 x70 +1 x72 +1 x74 +1 x77 +1 x78 +1 x83 +1 x92 +1 x93 >= +1
 c55: +1 x3 +1 x6 +1 x8 +1 x18 +1 x23 +1 x25 +1 x31 +1 x37 +1 x38 +1 x50 +1 x60 +1 x64 +1 x65 +1 x68 +1 x71
  +1 x77 +1 x83 +1 x84 +1 x93 +1 x96 +1 x99 >= +1
 c56: +1 x0 +1 x12 +1 x15 +1 x16 +1 x21 +1 x27 +1 x31 +1 x32 +1 x35 +1 x38 +1 x53 +1 x57 +1 x58 +1 x59
  +1 x65 +1 x79 +1 x82 +1 x88 +1 x95 +1 x98 >= +1
 c57: +1 x3 +1 x14 +1 x15 +1 x26 +1 x31 +1 x32 +1 x43 +1 x46 +1 x47 +1 x50 +1 x58 +1 x61 +1 x65 +1 x81
  +1 x85 +1 x95 +1 x97 >= +1
 c58: +1 x2 +1 x11 +1 x12 +1 x15 +1 x21 +1 x23 +1 x26 +1 x35 +1 x40 +1 x41 +1 x42 +1 x49 +1 x53 +1 x60
  +1 x63 +1 x64 +1 x67 +1 x77 +1 x78 +1 x89 +1 x94 >= +1
 c59: +1 x2 +1 x10 +1 x18 +1 x34 +1 x36 +1 x38 +1 x42 +1 x44 +1 x47 +1 x50 +1 x57 +1 x60 +1 x68 +1 x81
  +1 x89 +1 x94 +1 x98 >= +1
 c60: +1 x1 +1 x9 +1 x10 +1 x27 +1 x39 +1 x42 +1 x48 +1 x52 +1 x55 +1 x61 +1 x63 +1 x68 +1 x76 +1 x78
  +1 x82 +1 x83 +1 x87 +1 x89 +1 x93 +1 x94 +1 x97 >= +1
 c61: +1 x3 +1 x8 +1 x9 +1 x13 +1 x17 +1 x34 +1 x37 +1 x40 +1 x50 +1 x65 +1 x67 +1 x70 +1 x77 +1 x80 +1 x85
  +1 x92 +1 x97 >= +1
 c62: +1 x0 +1 x5 +1 x10 +1 x13 +1 x19 +1 x22 +1 x23 +1 x30 +1 x38 +1 x44 +1 x45 +1 x57 +1 x65 +1 x73
  +1 x80 +1 x82 +1 x85 +1 x88 +1 x95 +1 x98 +1 x99 >= +1
 c63: +1 x0 +1 x11 +1 x17 +1 x18 +1 x24 +1 x30 +1 x32 +1 x41 +1 x44 +1 x46 +1 x55 +1 x64 +1 x66 +1 x70
  +1 x84 +1 x93 +1 x97 +1 x98 >= +1
 c64: +1 x2 +1 x7 +1 x8 +1 x11 +1 x14 +1 x16 +1 x18 +1 x30 +1 x31 +1 x46 +1 x57 +1 x59 +1 x61 +1 x74 +1 x79
  +1 x80 +1 x90 +1 x92 +1 x94 +1 x95 +1 x97 >= +1
 c65: +1 x0 +1 x5 +1 x6 +1 x8 +1 x11 +1 x13 +1 x20 +1 x29 +1 x36 +1 x39 +1 x51 +1 x52 +1 x53 +1 x57 +1 x58
  +1 x60 +1 x63 +1 x66 +1 x79 +1 x83 +1 x86 >= +1
 c66: +1 x1 +1 x7 +1 x18 +1 x22 +1 x29 +1 x37 +1 x47 +1 x62 +1 x72 +1 x74 +1 x75 +1 x82 +1 x85 +1 x86
  +1 x95 >= +1
 c67: +1 x2 +1 x5 +1 x9 +1 x11 +1 x14 +1 x16 +1 x18 +1 x37 +1 x40 +1 x41 +1 x43 +1 x47 +1 x53 +1 x64 +1 x65
  +1 x67 +1 x68 +1 x71 +1 x75 +1 x78 +1 x81 +1 x84 +1 x89 +1 x91 +1 x92 +1 x96 +1 x98 +1 x99 >= +1
 c68: +1 x4 +1 x6 +1 x8 +1 x10 +1 x11 +1 x22 +1 x24 +1 x25 +1 x28 +1 x29 +1 x34 +1 x37 +1 x43 +1 x46 +1 x53
  +1 x58 +1 x61 +1 x67 +1 x69 +1 x70 +1 x75 +1 x85 +1 x87 +1 x90 +1 x95 >= +1
 c69: +1 x3 +1 x6 +1 x7 +1 x11 +1 x12 +1 x15 +1 x24 +1 x29 +1 x38 +1 x54 +1 x57 +1 x73 +1 x77 +1 x79 +1 x87
  +1 x92 +1 x95 >= +1
 c70: +1 x1 +1 x25 +1 x34 +1 x44 +1 x53 +1 x54 +1 x56 +1 x60 +1 x70 +1 x76 +1 x77 +1 x99 >= +1
 c71: +1 x0 +1 x11 +1 x13 +1 x18 +1 x19 +1 x28 +1 x33 +1 x40 +1 x42 +1 x44 +1 x50 +1 x55 +1 x70 +1 x71
  +1 x80 +1 x88 +1 x92 +1 x93 +1 x96 +1 x98 >= +1
 c72: +1 x0 +1 x4 +1 x16 +1 x17 +1 x21 +1 x23 +1 x24 +1 x35 +1 x42 +1 x44 +1 x48 +1 x49 +1 x53 +1 x55
  +1 x61 +1 x62 +1 x64 +1 x67 +1 x68 +1 x71 +1 x73 +1 x75 +1 x79 +1 x81 +1 x85 +1 x97 >= +1
 c73: +1 x3 +1 x6 +1 x9 +1 x14 +1 x17 +1 x18 +1 x19 +1 x22 +1 x41 +1 x48 +1 x51 +1 x54 +1 x59 +1 x61 +1 x62
  +1 x66 +1 x78 +1 x88 +1 x89 +1 x90 +1 x91 >= +1
 c74: +1 x0 +1 x5 +1 x8 +1 x15 +1 x23 +1 x25 +1 x28 +1 x29 +1 x40 +1 x47 +1 x48 +1 x63 +1 x65 +1 x69 +1 x73
  +1 x76 +1 x80 +1 x98 >= +1
 c75: +1 x4 +1 x6 +1 x16 +1 x26 +1 x31 +1 x49 +1 x66 +1 x72 +1 x74 +1 x85 +1 x89 >= +1
 c76: +1 x1 +1 x26 +1 x29 +1 x31 +1 x32 +1 x35 +1 x39 +1 x47 +1 x58 +1 x71 +1 x73 +1 x76 +1 x78 +1 x81
  +1 x82 +1 x84 +1 x87 +1 x98 >= +1
 c77: +1 x2 +1 x9 +1 x15 +1 x19 +1 x23 +1 x26 +1 x31 +1 x37 +1 x42 +1 x43 +1 x52 +1 x54 +1 x60 +1 x61
  +1 x63 +1 x67 +1 x75 +1 x84 +1 x88 +1 x92 +1 x93 +1 x96 +1 x99 >= +1
 c78: +1 x4 +1 x9 +1 x17 +1 x20 +1 x23 +1 x26 +1 x28 +1 x30 +1 x39 +1 x47 +1 x48 +1 x52 +1 x62 +1 x63
  +1 x80 +1 x87 +1 x88 +1 x97 >= +1
 c79: +1 x3 +1 x8 +1 x13 +1 x15 +1 x17 +1 x22 +1 x24 +1 x27 +1 x28 +1 x30 +1 x34 +1 x41 +1 x45 +1 x46
  +1 x53 +1 x57 +1 x59 +1 x61 +1 x66 +1 x68 +1 x73 +1 x74 +1 x77 +1 x79 +1 x95 +1 x96 +1 x97 >= +1
 c80: +1 x2 +1 x10 +1 x11 +1 x14 +1 x15 +1 x19 +1 x22 +1 x31 +1 x33 +1 x43 +1 x48 +1 x56 +1 x59 +1 x62
  +1 x79 +1 x83 +1 x84 +1 x86 +1 x92 >= +1
 c81: +1 x4 +1 x6 +1 x12 +1 x27 +1 x28 +1 x36 +1 x38 +1 x41 +1 x44 +1 x45 +1 x52 +1 x63 +1 x68 +1 x78
  +1 x81 +1 x84 +1 x88 +1 x97 >= +1
 c82: +1 x0 +1 x7 +1 x13 +1 x19 +1 x23 +1 x24 +1 x25 +1 x30 +1 x37 +1 x47 +1 x49 +1 x58 +1 x65 +1 x78
  +1 x85 +1 x92 +1 x94 +1 x97 >= +1
 c83: +1 x1 +1 x10 +1 x22 +1 x25 +1 x35 +1 x43 +1 x54 +1 x55 +1 x56 +1 x58 +1 x61 +1 x63 +1 x66 +1 x68
  +1 x70 +1 x72 +1 x83 +1 x87 +1 x88 +1 x91 +1 x92 +1 x99 >= +1
 c84: +1 x1 +1 x11 +1 x12 +1 x14 +1 x26 +1 x28 +1 x31 +1 x34 +1 x37 +1 x53 +1 x57 +1 x62 +1 x65 +1 x68
  +1 x70 +1 x77 +1 x78 +1 x85 >= +1
 c85: +1 x4 +1 x9 +1 x12 +1 x13 +1 x15 +1 x25 +1 x30 +1 x43 +1 x53 +1 x55 +1 x56 +1 x57 +1 x58 +1 x76
  +1 x78 +1 x81 +1 x88 +1 x91 +1 x93 +1 x98 >= +1
 c86: +1 x4 +1 x16 +1 x21 +1 x22 +1 x23 +1 x25 +1 x26 +1 x31 +1 x35 +1 x39 +1 x41 +1 x45 +1 x50 +1 x52
  +1 x54 +1 x56 +1 x57 +1 x75 +1 x76 +1 x78 +1 x94 +1 x96 +1 x99 >= +1
 c87: +1 x2 +1 x8 +1 x9 +1 x10 +1 x11 +1 x27 +1 x31 +1 x34 +1 x36 +1 x37 +1 x49 +1 x59 +1 x60 +1 x72 +1 x80
  +1 x86 +1 x88 +1 x90 >= +1
 c88: +1 x1 +1 x6 +1 x13 +1 x14 +1 x15 +1 x21 +1 x25 +1 x27 +1 x29 +1 x37 +1 x54 +1 x62 +1 x63 +1 x66
  +1 x67 +1 x82 +1 x90 +1 x94 +1 x99 >= +1
 c89: +1 x2 +1 x17 +1 x18 +1 x19 +1 x21 +1 x28 +1 x33 +1 x34 +1 x40 +1 x42 +1 x45 +1 x47 +1 x48 +1 x50
  +1 x54 +1 x69 +1 x74 +1 x92 +1 x99 >= +1
 c90: +1 x1 +1 x5 +1 x14 +1 x15 +1 x16 +1 x18 +1 x22 +1 x23 +1 x29 +1 x34 +1 x36 +1 x42 +1 x46 +1 x47
  +1 x48 +1 x50 +1 x56 +1 x58 +1 x61 +1 x62 +1 x66 +1 x67 +1 x73 +1 x84 +1 x90 +1 x92 +1 x96 >= +1
 c91: +1 x2 +1 x4 +1 x5 +1 x8 +1 x9 +1 x11 +1 x12 +1 x21 +1 x30 +1 x43 +1 x46 +1 x47 +1 x50 +1 x51 +1 x56
  +1 x58 +1 x59 +1 x61 +1 x69 +1 x70 +1 x80 +1 x82 +1 x92 +1 x93 +1 x98 >= +1
 c92: +1 x3 +1 x12 +1 x15 +1 x16 +1 x19 +1 x26 +1 x31 +1 x38 +1 x57 +1 x62 +1 x64 +1 x71 +1 x73 +1 x83
  +1 x86 +1 x89 +1 x91 +1 x93 +1 x98 >= +1
 c93: +1 x1 +1 x8 +1 x21 +1 x22 +1 x39 +1 x41 +1 x47 +1 x51 +1 x56 +1 x60 +1 x67 +1 x68 +1 x71 +1 x87
  +1 x89 +1 x97 >= +1
 c94: +1 x4 +1 x6 +1 x8 +1 x18 +1 x33 +1 x45 +1 x47 +1 x48 +1 x49 +1 x50 +1 x65 +1 x69 +1 x78 +1 x84 +1 x89
  +1 x95 +1 x96 +1 x98 >= +1
 c95: +1 x4 +1 x16 +1 x27 +1 x29 +1 x32 +1 x35 +1 x39 +1 x43 +1 x53 +1 x62 +1 x65 +1 x67 +1 x69 +1 x72
  +1 x76 +1 x77 +1 x79 +1 x88 +1 x96 +1 x99 >= +1
 c96: +1 x3 +1 x7 +1 x9 +1 x22 +1 x29 +1 x31 +1 x37 +1 x39 +1 x41 +1 x42 +1 x44 +1 x58 +1 x70 +1 x72 +1 x73
  +1 x80 +1 x84 +1 x97 >= +1
 c97: +1 x2 +1 x6 +1 x11 +1 x21 +1 x23 +1 x26 +1 x28 +1 x29 +1 x30 +1 x40 +1 x48 +1 x50 +1 x51 +1 x52
  +1 x55 +1 x58 +1 x74 +1 x84 +1 x85 +1 x90 +1 x95 +1 x98 >= +1
 c98: +1 x3 +1 x17 +1 x18 +1 x21 +1 x23 +1 x26 +1 x28 +1 x30 +1 x35 +1 x36 +1 x47 +1 x53 +1 x54 +1 x55
  +1 x64 +1 x70 +1 x71 +1 x86 +1 x97 >= +1
 c99: +1 x1 +1 x18 +1 x36 +1 x37 +1 x38 +1 x43 +1 x46 +1 x53 +1 x54 +1 x57 +1 x63 +1 x64 +1 x65 +1 x70
  +1 x71 +1 x75 +1 x91 +1 x98 >= +1
Bounds
 0 <= x0 <= 1
 0 <= x1 <= 1
 0 <= x2 <= 1
 0 <= x3 <= 1
 0 <= x4 <= 1
 0 <= x5 <= 1
 0 <= x6 <= 1
 0 <= x7 <= 1
 0 <= x8 <= 1
 0 <= x9 <= 1
 0 <= x10 <= 1
 0 <= x11 <= 1
 0 <= x12 <= 1
 0 <= x13 <= 1
 0 <= x14 <= 1
 0 <= x15 <= 1
 0 <= x16 <= 1
 0 <= x17 <= 1
 0 <= x18 <= 1
 0 <= x19 <= 1
 0 <= x20 <= 1
 0 <= x21 <= 1
 0 <= x22 <= 1
 0 <= x23 <= 1
 0 <= x24 <= 1
 0 <= x25 <= 1
 0 <= x26 <= 1
 0 <= x27 <= 1
 0 <= x28 <= 1
 0 <= x29 <= 1
 0 <= x30 <= 1
 0 <= x31 <= 1
 0 <= x32 <= 1
 0 <= x33 <= 1
 0 <= x34 <= 1
 0 <= x35 <= 1
 0 <= x36 <= 1
 0 <= x37 <= 1
 0 <= x38 <= 1
 0 <= x39 <= 1
 0 <= x40 <= 1
 0 <= x41 <= 1
 0 <= x42 <= 1
 0 <= x43 <= 1
 0 <= x44 <= 1
 0 <= x45 <= 1
 0 <= x46 <= 1
 0 <= x47 <= 1
 0 <= x48 <= 1
 0 <= x49 <= 1
 0 <= x50 <= 1
 0 <= x51 <= 1
 0 <= x52 <= 1
 0 <= x53 <= 1
 0 <= x54 <= 1
 0 <= x55 <= 1
 0 <= x56 <= 1
 0 <= x57 <= 1
 0 <= x58 <= 1
 0 <= x59 <= 1
 0 <= x60 <= 1
 0 <= x61 <= 1
 0 <= x62 <= 1
 0 <= x63 <= 1
 0 <= x64 <= 1
 0 <= x65 <= 1
 0 <= x66 <= 1
 0 <= x67 <= 1
 0 <= x68 <= 1
 0 <= x69 <= 1
 0 <= x70 <= 1
 0 <= x71 <= 1
 0 <= x72 <= 1
 0 <= x73 <= 1
 0 <= x74 <= 1
 0 <= x75 <= 1
 0 <= x76 <= 1
 0 <= x77 <= 1
 0 <= x78 <= 1
 0 <= x79 <= 1
 0 <= x80 <= 1
 0 <= x81 <= 1
 0 <= x82 <= 1
 0 <= x83 <= 1
 0 <= x84 <= 1
 0 <= x85 <= 1
 0 <= x86 <= 1
 0 <= x87 <= 1
 0 <= x88 <= 1
 0 <= x89 <= 1
 0 <= x90 <= 1
 0 <= x91 <= 1
 0 <= x92 <= 1
 0 <= x93 <= 1
 0 <= x94 <= 1
 0 <= x95 <= 1
 0 <= x96 <= 1
 0 <= x97 <= 1
 0 <= x98 <= 1
 0 <= x99 <= 1
Binaries
 x0 x1 x2 x3 x4 x5 x6 x7 x8 x9 x10 x11 x12 x13 x14 x15 x16 x17 x18 x19 x20 x21 x22 x23 x24 x25 x26 x27
 x28 x29 x30 x31 x32 x33 x34 x35 x36 x37 x38 x39 x40 x41 x42 x43 x44 x45 x46 x47 x48 x49 x50 x51 x52 x53
 x54 x55 x56 x57 x58 x59 x60 x61 x62 x63 x64 x65 x66 x67 x68 x69 x70 x71 x72 x73 x74 x75 x76 x77 x78 x79
 x80 x81 x82 x83 x84 x85 x86 x87 x88 x89 x90 x91 x92 x93 x94 x95 x96 x97 x98 x99
End
